Optimal - objective value 4181.00000000
     18 x_0_19                  1                     108
     21 x_1_0                   1                       0
     51 x_2_10                  1                       0
     64 x_3_1                   1                       0
     95 x_4_12                  1                       0
    117 x_5_13                  1                       0
    136 x_6_11                  1                       0
    149 x_7_2                   1                      40
    176 x_8_9                   1                      -6
    204 x_9_16                  1                      14
    227 x_10_18                 1                       0
    244 x_11_14                 1                     140
    272 x_12_21                 1                     225
    279 x_13_6                  1                       0
    308 x_14_15                 1                       0
    323 x_15_8                  1                       0
    352 x_16_17                 1                       0
    360 x_17_3                  1                     442
    397 x_18_20                 1                     141
    403 x_19_4                  1                       0
    425 x_20_5                  1                       0
    448 x_21_7                  1                       0
    462 u_1                    21                       0
    463 u_2       6.00000000000001                       0
    464 u_3                    20                       0
    465 u_4                     2                       0
    466 u_5                    10                       0
    467 u_6                    12                       0
    468 u_7       5.00000000000001                       0
    469 u_8                    16                       0
    470 u_9                    17                       0
    471 u_10      7.00000000000001                       0
    472 u_11                   13                       0
    473 u_12                    3                       0
    474 u_13                   11                       0
    475 u_14                   14                       0
    476 u_15                   15                       0
    477 u_16                   18                       0
    478 u_17                   19                       0
    479 u_18      8.00000000000001                       0
    480 u_19                    1                       0
    481 u_20      9.00000000000001                       0
    482 u_21                    4                       0
